p cnf 651 1204
6 17 47 51 52 0
6 17 47 51 -52 0
6 17 47 -51 52 0
6 17 47 -51 -52 0
6 -17 43 53 54 0
6 -17 43 53 -54 0
6 -17 43 -53 54 0
6 -17 43 -53 -54 0
-6 43 47 55 56 0
-6 43 47 55 -56 0
-6 43 47 -55 56 0
-6 43 47 -55 -56 0
19 47 -48 57 58 0
19 47 -48 57 -58 0
19 47 -48 -57 58 0
19 47 -48 -57 -58 0
-19 28 47 59 60 0
-19 28 47 59 -60 0
-19 28 47 -59 60 0
-19 28 47 -59 -60 0
-28 43 47 61 62 0
-28 43 47 61 -62 0
-28 43 47 -61 62 0
-28 43 47 -61 -62 0
-36 46 -48 63 64 0
-36 46 -48 63 -64 0
-36 46 -48 -63 64 0
-36 46 -48 -63 -64 0
-36 47 -48 65 66 0
-36 47 -48 65 -66 0
-36 47 -48 -65 66 0
-36 47 -48 -65 -66 0
8 -38 -47 67 68 0
8 -38 -47 67 -68 0
8 -38 -47 -67 68 0
8 -38 -47 -67 -68 0
-38 -47 48 69 70 0
-38 -47 48 69 -70 0
-38 -47 48 -69 70 0
-38 -47 48 -69 -70 0
6 -47 -48 71 72 0
6 -47 -48 71 -72 0
6 -47 -48 -71 72 0
6 -47 -48 -71 -72 0
-6 43 -48 73 74 0
-6 43 -48 73 -74 0
-6 43 -48 -73 74 0
-6 43 -48 -73 -74 0
-31 43 -47 75 76 0
-31 43 -47 75 -76 0
-31 43 -47 -75 76 0
-31 43 -47 -75 -76 0
8 28 33 77 78 0
8 28 33 77 -78 0
8 28 33 -77 78 0
8 28 33 -77 -78 0
-8 33 -43 79 80 0
-8 33 -43 79 -80 0
-8 33 -43 -79 80 0
-8 33 -43 -79 -80 0
1 38 47 81 82 0
1 38 47 81 -82 0
1 38 47 -81 82 0
1 38 47 -81 -82 0
1 28 -38 83 84 0
1 28 -38 83 -84 0
1 28 -38 -83 84 0
1 28 -38 -83 -84 0
18 -43 -47 85 86 0
18 -43 -47 85 -86 0
18 -43 -47 -85 86 0
18 -43 -47 -85 -86 0
37 40 -47 87 88 0
37 40 -47 87 -88 0
37 40 -47 -87 88 0
37 40 -47 -87 -88 0
28 -37 40 89 90 0
28 -37 40 89 -90 0
28 -37 40 -89 90 0
28 -37 40 -89 -90 0
-15 28 40 91 92 0
-15 28 40 91 -92 0
-15 28 40 -91 92 0
-15 28 40 -91 -92 0
1 22 -40 93 94 0
1 22 -40 93 -94 0
1 22 -40 -93 94 0
1 22 -40 -93 -94 0
22 -23 -40 95 96 0
22 -23 -40 95 -96 0
22 -23 -40 -95 96 0
22 -23 -40 -95 -96 0
-22 -38 -40 97 98 0
-22 -38 -40 97 -98 0
-22 -38 -40 -97 98 0
-22 -38 -40 -97 -98 0
1 -28 -38 99 100 0
1 -28 -38 99 -100 0
1 -28 -38 -99 100 0
1 -28 -38 -99 -100 0
13 40 49 101 102 0
13 40 49 101 -102 0
13 40 49 -101 102 0
13 40 49 -101 -102 0
-1 13 -40 103 104 0
-1 13 -40 103 -104 0
-1 13 -40 -103 104 0
-1 13 -40 -103 -104 0
-13 33 -38 105 106 0
-13 33 -38 105 -106 0
-13 33 -38 -105 106 0
-13 33 -38 -105 -106 0
-13 -33 49 107 108 0
-13 -33 49 107 -108 0
-13 -33 49 -107 108 0
-13 -33 49 -107 -108 0
-1 -38 -49 109 110 0
-1 -38 -49 109 -110 0
-1 -38 -49 -109 110 0
-1 -38 -49 -109 -110 0
4 -27 38 111 112 0
4 -27 38 111 -112 0
4 -27 38 -111 112 0
4 -27 38 -111 -112 0
28 29 42 113 114 0
28 29 42 113 -114 0
28 29 42 -113 114 0
28 29 42 -113 -114 0
-27 29 -42 115 116 0
-27 29 -42 115 -116 0
-27 29 -42 -115 116 0
-27 29 -42 -115 -116 0
16 28 42 117 118 0
16 28 42 117 -118 0
16 28 42 -117 118 0
16 28 42 -117 -118 0
14 16 42 119 120 0
14 16 42 119 -120 0
14 16 42 -119 120 0
14 16 42 -119 -120 0
16 29 -42 121 122 0
16 29 -42 121 -122 0
16 29 -42 -121 122 0
16 29 -42 -121 -122 0
17 25 50 123 124 0
17 25 50 123 -124 0
17 25 50 -123 124 0
17 25 50 -123 -124 0
-25 34 50 125 126 0
-25 34 50 125 -126 0
-25 34 50 -125 126 0
-25 34 50 -125 -126 0
-34 45 49 127 128 0
-34 45 49 127 -128 0
-34 45 49 -127 128 0
-34 45 49 -127 -128 0
38 -45 50 129 130 0
38 -45 50 129 -130 0
38 -45 50 -129 130 0
38 -45 50 -129 -130 0
-4 49 -50 131 132 0
-4 49 -50 131 -132 0
-4 49 -50 -131 132 0
-4 49 -50 -131 -132 0
16 41 -49 133 134 0
16 41 -49 133 -134 0
16 41 -49 -133 134 0
16 41 -49 -133 -134 0
-4 -22 30 135 136 0
-4 -22 30 135 -136 0
-4 -22 30 -135 136 0
-4 -22 30 -135 -136 0
14 30 -41 137 138 0
14 30 -41 137 -138 0
14 30 -41 -137 138 0
14 30 -41 -137 -138 0
14 -30 47 139 140 0
14 -30 47 139 -140 0
14 -30 47 -139 140 0
14 -30 47 -139 -140 0
2 14 -27 141 142 0
2 14 -27 141 -142 0
2 14 -27 -141 142 0
2 14 -27 -141 -142 0
-2 14 16 143 144 0
-2 14 16 143 -144 0
-2 14 16 -143 144 0
-2 14 16 -143 -144 0
-4 -17 21 145 146 0
-4 -17 21 145 -146 0
-4 -17 21 -145 146 0
-4 -17 21 -145 -146 0
-17 -27 45 147 148 0
-17 -27 45 147 -148 0
-17 -27 45 -147 148 0
-17 -27 45 -147 -148 0
-17 -27 -45 149 150 0
-17 -27 -45 149 -150 0
-17 -27 -45 -149 150 0
-17 -27 -45 -149 -150 0
-21 41 -49 151 152 0
-21 41 -49 151 -152 0
-21 41 -49 -151 152 0
-21 41 -49 -151 -152 0
-17 -21 -41 153 154 0
-17 -21 -41 153 -154 0
-17 -21 -41 -153 154 0
-17 -21 -41 -153 -154 0
-4 -14 16 155 156 0
-4 -14 16 155 -156 0
-4 -14 16 -155 156 0
-4 -14 16 -155 -156 0
-16 20 38 157 158 0
-16 20 38 157 -158 0
-16 20 38 -157 158 0
-16 20 38 -157 -158 0
-16 20 -35 159 160 0
-16 20 -35 159 -160 0
-16 20 -35 -159 160 0
-16 20 -35 -159 -160 0
-16 -20 -27 161 162 0
-16 -20 -27 161 -162 0
-16 -20 -27 -161 162 0
-16 -20 -27 -161 -162 0
15 27 42 163 164 0
15 27 42 163 -164 0
15 27 42 -163 164 0
15 27 42 -163 -164 0
-15 21 42 165 166 0
-15 21 42 165 -166 0
-15 21 42 -165 166 0
-15 21 42 -165 -166 0
-15 38 42 167 168 0
-15 38 42 167 -168 0
-15 38 42 -167 168 0
-15 38 42 -167 -168 0
19 -37 -42 169 170 0
19 -37 -42 169 -170 0
19 -37 -42 -169 170 0
19 -37 -42 -169 -170 0
-19 38 -42 171 172 0
-19 38 -42 171 -172 0
-19 38 -42 -171 172 0
-19 38 -42 -171 -172 0
7 37 -47 173 174 0
7 37 -47 173 -174 0
7 37 -47 -173 174 0
7 37 -47 -173 -174 0
29 37 -47 175 176 0
29 37 -47 175 -176 0
29 37 -47 -175 176 0
29 37 -47 -175 -176 0
27 37 -47 177 178 0
27 37 -47 177 -178 0
27 37 -47 -177 178 0
27 37 -47 -177 -178 0
11 27 37 179 180 0
11 27 37 179 -180 0
11 27 37 -179 180 0
11 27 37 -179 -180 0
1 27 37 181 182 0
1 27 37 181 -182 0
1 27 37 -181 182 0
1 27 37 -181 -182 0
7 -42 47 183 184 0
7 -42 47 183 -184 0
7 -42 47 -183 184 0
7 -42 47 -183 -184 0
-3 8 27 185 186 0
-3 8 27 185 -186 0
-3 8 27 -185 186 0
-3 8 27 -185 -186 0
-3 4 -8 187 188 0
-3 4 -8 187 -188 0
-3 4 -8 -187 188 0
-3 4 -8 -187 -188 0
-3 -4 15 189 190 0
-3 -4 15 189 -190 0
-3 -4 15 -189 190 0
-3 -4 15 -189 -190 0
-3 -8 -15 191 192 0
-3 -8 -15 191 -192 0
-3 -8 -15 -191 192 0
-3 -8 -15 -191 -192 0
11 17 -42 193 194 0
11 17 -42 193 -194 0
11 17 -42 -193 194 0
11 17 -42 -193 -194 0
11 -20 -42 195 196 0
11 -20 -42 195 -196 0
11 -20 -42 -195 196 0
11 -20 -42 -195 -196 0
11 -17 -42 197 198 0
11 -17 -42 197 -198 0
11 -17 -42 -197 198 0
11 -17 -42 -197 -198 0
23 27 -40 199 200 0
23 27 -40 199 -200 0
23 27 -40 -199 200 0
23 27 -40 -199 -200 0
-7 -40 48 201 202 0
-7 -40 48 201 -202 0
-7 -40 48 -201 202 0
-7 -40 48 -201 -202 0
-7 -23 -40 203 204 0
-7 -23 -40 203 -204 0
-7 -23 -40 -203 204 0
-7 -23 -40 -203 -204 0
-11 40 43 205 206 0
-11 40 43 205 -206 0
-11 40 43 -205 206 0
-11 40 43 -205 -206 0
-2 3 27 207 208 0
-2 3 27 207 -208 0
-2 3 27 -207 208 0
-2 3 27 -207 -208 0
-2 -27 30 209 210 0
-2 -27 30 209 -210 0
-2 -27 30 -209 210 0
-2 -27 30 -209 -210 0
3 -30 42 211 212 0
3 -30 42 211 -212 0
3 -30 42 -211 212 0
3 -30 42 -211 -212 0
3 12 -30 213 214 0
3 12 -30 213 -214 0
3 12 -30 -213 214 0
3 12 -30 -213 -214 0
-12 31 -42 215 216 0
-12 31 -42 215 -216 0
-12 31 -42 -215 216 0
-12 31 -42 -215 -216 0
3 -12 -31 217 218 0
3 -12 -31 217 -218 0
3 -12 -31 -217 218 0
3 -12 -31 -217 -218 0
3 -13 17 219 220 0
3 -13 17 219 -220 0
3 -13 17 -219 220 0
3 -13 17 -219 -220 0
3 -13 -43 221 222 0
3 -13 -43 221 -222 0
3 -13 -43 -221 222 0
3 -13 -43 -221 -222 0
16 34 -43 223 224 0
16 34 -43 223 -224 0
16 34 -43 -223 224 0
16 34 -43 -223 -224 0
16 22 -34 225 226 0
16 22 -34 225 -226 0
16 22 -34 -225 226 0
16 22 -34 -225 -226 0
-22 -34 -43 227 228 0
-22 -34 -43 227 -228 0
-22 -34 -43 -227 228 0
-22 -34 -43 -227 -228 0
2 -16 -48 229 230 0
2 -16 -48 229 -230 0
2 -16 -48 -229 230 0
2 -16 -48 -229 -230 0
3 -7 11 231 232 0
3 -7 11 231 -232 0
3 -7 11 -231 232 0
3 -7 11 -231 -232 0
-7 11 26 233 234 0
-7 11 26 233 -234 0
-7 11 26 -233 234 0
-7 11 26 -233 -234 0
11 -12 -26 235 236 0
11 -12 -26 235 -236 0
11 -12 -26 -235 236 0
11 -12 -26 -235 -236 0
-11 22 31 237 238 0
-11 22 31 237 -238 0
-11 22 31 -237 238 0
-11 22 31 -237 -238 0
7 -22 46 239 240 0
7 -22 46 239 -240 0
7 -22 46 -239 240 0
7 -22 46 -239 -240 0
3 37 46 241 242 0
3 37 46 241 -242 0
3 37 46 -241 242 0
3 37 46 -241 -242 0
4 -22 37 243 244 0
4 -22 37 243 -244 0
4 -22 37 -243 244 0
4 -22 37 -243 -244 0
3 -22 -37 245 246 0
3 -22 -37 245 -246 0
3 -22 -37 -245 246 0
3 -22 -37 -245 -246 0
12 25 31 247 248 0
12 25 31 247 -248 0
12 25 31 -247 248 0
12 25 31 -247 -248 0
11 12 31 249 250 0
11 12 31 249 -250 0
11 12 31 -249 250 0
11 12 31 -249 -250 0
-7 -11 31 251 252 0
-7 -11 31 251 -252 0
-7 -11 31 -251 252 0
-7 -11 31 -251 -252 0
1 -11 -12 253 254 0
1 -11 -12 253 -254 0
1 -11 -12 -253 254 0
1 -11 -12 -253 -254 0
-1 -11 -12 255 256 0
-1 -11 -12 255 -256 0
-1 -11 -12 -255 256 0
-1 -11 -12 -255 -256 0
-11 -22 -29 257 258 0
-11 -22 -29 257 -258 0
-11 -22 -29 -257 258 0
-11 -22 -29 -257 -258 0
2 -31 46 259 260 0
2 -31 46 259 -260 0
2 -31 46 -259 260 0
2 -31 46 -259 -260 0
-2 15 34 261 262 0
-2 15 34 261 -262 0
-2 15 34 -261 262 0
-2 15 34 -261 -262 0
-2 -15 -31 263 264 0
-2 -15 -31 263 -264 0
-2 -15 -31 -263 264 0
-2 -15 -31 -263 -264 0
-31 33 46 265 266 0
-31 33 46 265 -266 0
-31 33 46 -265 266 0
-31 33 46 -265 -266 0
9 -33 46 267 268 0
9 -33 46 267 -268 0
9 -33 46 -267 268 0
9 -33 46 -267 -268 0
-9 46 48 269 270 0
-9 46 48 269 -270 0
-9 46 48 -269 270 0
-9 46 48 -269 -270 0
2 20 -46 271 272 0
2 20 -46 271 -272 0
2 20 -46 -271 272 0
2 20 -46 -271 -272 0
-11 20 -46 273 274 0
-11 20 -46 273 -274 0
-11 20 -46 -273 274 0
-11 20 -46 -273 -274 0
-11 20 -39 275 276 0
-11 20 -39 275 -276 0
-11 20 -39 -275 276 0
-11 20 -39 -275 -276 0
18 27 -46 277 278 0
18 27 -46 277 -278 0
18 27 -46 -277 278 0
18 27 -46 -277 -278 0
2 18 -46 279 280 0
2 18 -46 279 -280 0
2 18 -46 -279 280 0
2 18 -46 -279 -280 0
18 -46 48 281 282 0
18 -46 48 281 -282 0
18 -46 48 -281 282 0
18 -46 48 -281 -282 0
9 18 -46 283 284 0
9 18 -46 283 -284 0
9 18 -46 -283 284 0
9 18 -46 -283 -284 0
-5 8 36 285 286 0
-5 8 36 285 -286 0
-5 8 36 -285 286 0
-5 8 36 -285 -286 0
4 13 33 287 288 0
4 13 33 287 -288 0
4 13 33 -287 288 0
4 13 33 -287 -288 0
4 -13 -46 289 290 0
4 -13 -46 289 -290 0
4 -13 -46 -289 290 0
4 -13 -46 -289 -290 0
33 -36 39 291 292 0
33 -36 39 291 -292 0
33 -36 39 -291 292 0
33 -36 39 -291 -292 0
-36 -39 -46 293 294 0
-36 -39 -46 293 -294 0
-36 -39 -46 -293 294 0
-36 -39 -46 -293 -294 0
-9 -36 38 295 296 0
-9 -36 38 295 -296 0
-9 -36 38 -295 296 0
-9 -36 38 -295 -296 0
26 32 -33 297 298 0
26 32 -33 297 -298 0
26 32 -33 -297 298 0
26 32 -33 -297 -298 0
-9 -26 -33 299 300 0
-9 -26 -33 299 -300 0
-9 -26 -33 -299 300 0
-9 -26 -33 -299 -300 0
-9 -32 -33 301 302 0
-9 -32 -33 301 -302 0
-9 -32 -33 -301 302 0
-9 -32 -33 -301 -302 0
8 9 -20 303 304 0
8 9 -20 303 -304 0
8 9 -20 -303 304 0
8 9 -20 -303 -304 0
-8 9 33 305 306 0
-8 9 33 305 -306 0
-8 9 33 -305 306 0
-8 9 33 -305 -306 0
9 -29 -33 307 308 0
9 -29 -33 307 -308 0
9 -29 -33 -307 308 0
9 -29 -33 -307 -308 0
-8 -9 -33 309 310 0
-8 -9 -33 309 -310 0
-8 -9 -33 -309 310 0
-8 -9 -33 -309 -310 0
-9 -20 28 311 312 0
-9 -20 28 311 -312 0
-9 -20 28 -311 312 0
-9 -20 28 -311 -312 0
-28 -29 32 313 314 0
-28 -29 32 313 -314 0
-28 -29 32 -313 314 0
-28 -29 32 -313 -314 0
-20 -29 -32 315 316 0
-20 -29 -32 315 -316 0
-20 -29 -32 -315 316 0
-20 -29 -32 -315 -316 0
-3 -29 39 317 318 0
-3 -29 39 317 -318 0
-3 -29 39 -317 318 0
-3 -29 39 -317 -318 0
-3 -28 -29 319 320 0
-3 -28 -29 319 -320 0
-3 -28 -29 -319 320 0
-3 -28 -29 -319 -320 0
21 30 49 321 322 0
21 30 49 321 -322 0
21 30 49 -321 322 0
21 30 49 -321 -322 0
21 -30 48 323 324 0
21 -30 48 323 -324 0
21 -30 48 -323 324 0
21 -30 48 -323 -324 0
17 48 -49 325 326 0
17 48 -49 325 -326 0
17 48 -49 -325 326 0
17 48 -49 -325 -326 0
-18 -21 48 327 328 0
-18 -21 48 327 -328 0
-18 -21 48 -327 328 0
-18 -21 48 -327 -328 0
10 13 -20 329 330 0
10 13 -20 329 -330 0
10 13 -20 -329 330 0
10 13 -20 -329 -330 0
-18 -20 36 331 332 0
-18 -20 36 331 -332 0
-18 -20 36 -331 332 0
-18 -20 36 -331 -332 0
7 8 -15 333 334 0
7 8 -15 333 -334 0
7 8 -15 -333 334 0
7 8 -15 -333 -334 0
7 -8 -15 335 336 0
7 -8 -15 335 -336 0
7 -8 -15 -335 336 0
7 -8 -15 -335 -336 0
-7 -15 29 337 338 0
-7 -15 29 337 -338 0
-7 -15 29 -337 338 0
-7 -15 29 -337 -338 0
6 -9 49 339 340 0
6 -9 49 339 -340 0
6 -9 49 -339 340 0
6 -9 49 -339 -340 0
-6 -18 49 341 342 0
-6 -18 49 341 -342 0
-6 -18 49 -341 342 0
-6 -18 49 -341 -342 0
6 -9 40 343 344 0
6 -9 40 343 -344 0
6 -9 40 -343 344 0
6 -9 40 -343 -344 0
-6 40 -49 345 346 0
-6 40 -49 345 -346 0
-6 40 -49 -345 346 0
-6 40 -49 -345 -346 0
-9 -40 -49 347 348 0
-9 -40 -49 347 -348 0
-9 -40 -49 -347 348 0
-9 -40 -49 -347 -348 0
2 -22 29 349 350 0
2 -22 29 349 -350 0
2 -22 29 -349 350 0
2 -22 29 -349 -350 0
-2 -22 29 351 352 0
-2 -22 29 351 -352 0
-2 -22 29 -351 352 0
-2 -22 29 -351 -352 0
14 -19 32 353 354 0
14 -19 32 353 -354 0
14 -19 32 -353 354 0
14 -19 32 -353 -354 0
-10 -19 -32 355 356 0
-10 -19 -32 355 -356 0
-10 -19 -32 -355 356 0
-10 -19 -32 -355 -356 0
-4 5 22 357 358 0
-4 5 22 357 -358 0
-4 5 22 -357 358 0
-4 5 22 -357 -358 0
-5 8 41 359 360 0
-5 8 41 359 -360 0
-5 8 41 -359 360 0
-5 8 41 -359 -360 0
-4 -5 -8 361 362 0
-4 -5 -8 361 -362 0
-4 -5 -8 -361 362 0
-4 -5 -8 -361 -362 0
2 45 46 363 364 0
2 45 46 363 -364 0
2 45 46 -363 364 0
2 45 46 -363 -364 0
22 -41 45 365 366 0
22 -41 45 365 -366 0
22 -41 45 -365 366 0
22 -41 45 -365 -366 0
9 -12 22 367 368 0
9 -12 22 367 -368 0
9 -12 22 -367 368 0
9 -12 22 -367 -368 0
2 -5 -45 369 370 0
2 -5 -45 369 -370 0
2 -5 -45 -369 370 0
2 -5 -45 -369 -370 0
-2 -4 24 371 372 0
-2 -4 24 371 -372 0
-2 -4 24 -371 372 0
-2 -4 24 -371 -372 0
-5 -24 38 373 374 0
-5 -24 38 373 -374 0
-5 -24 38 -373 374 0
-5 -24 38 -373 -374 0
-2 -5 -38 375 376 0
-2 -5 -38 375 -376 0
-2 -5 -38 -375 376 0
-2 -5 -38 -375 -376 0
-6 -17 29 377 378 0
-6 -17 29 377 -378 0
-6 -17 29 -377 378 0
-6 -17 29 -377 -378 0
5 6 35 379 380 0
5 6 35 379 -380 0
5 6 35 -379 380 0
5 6 35 -379 -380 0
15 32 35 381 382 0
15 32 35 381 -382 0
15 32 35 -381 382 0
15 32 35 -381 -382 0
-6 15 -32 383 384 0
-6 15 -32 383 -384 0
-6 15 -32 -383 384 0
-6 15 -32 -383 -384 0
5 25 35 385 386 0
5 25 35 385 -386 0
5 25 35 -385 386 0
5 25 35 -385 -386 0
5 -20 25 387 388 0
5 -20 25 387 -388 0
5 -20 25 -387 388 0
5 -20 25 -387 -388 0
-2 25 35 389 390 0
-2 25 35 389 -390 0
-2 25 35 -389 390 0
-2 25 35 -389 -390 0
5 31 32 391 392 0
5 31 32 391 -392 0
5 31 32 -391 392 0
5 31 32 -391 -392 0
5 15 -32 393 394 0
5 15 -32 393 -394 0
5 15 -32 -393 394 0
5 15 -32 -393 -394 0
29 -31 44 395 396 0
29 -31 44 395 -396 0
29 -31 44 -395 396 0
29 -31 44 -395 -396 0
19 -29 44 397 398 0
19 -29 44 397 -398 0
19 -29 44 -397 398 0
19 -29 44 -397 -398 0
-19 -29 44 399 400 0
-19 -29 44 399 -400 0
-19 -29 44 -399 400 0
-19 -29 44 -399 -400 0
-8 24 44 401 402 0
-8 24 44 401 -402 0
-8 24 44 -401 402 0
-8 24 44 -401 -402 0
15 -24 -31 403 404 0
15 -24 -31 403 -404 0
15 -24 -31 -403 404 0
15 -24 -31 -403 -404 0
-24 -35 41 405 406 0
-24 -35 41 405 -406 0
-24 -35 41 -405 406 0
-24 -35 41 -405 -406 0
-31 -35 -41 407 408 0
-31 -35 -41 407 -408 0
-31 -35 -41 -407 408 0
-31 -35 -41 -407 -408 0
15 17 35 409 410 0
15 17 35 409 -410 0
15 17 35 -409 410 0
15 17 35 -409 -410 0
4 -17 35 411 412 0
4 -17 35 411 -412 0
4 -17 35 -411 412 0
4 -17 35 -411 -412 0
-5 15 35 413 414 0
-5 15 35 413 -414 0
-5 15 35 -413 414 0
-5 15 35 -413 -414 0
-10 -14 38 415 416 0
-10 -14 38 415 -416 0
-10 -14 38 -415 416 0
-10 -14 38 -415 -416 0
-14 -36 -38 417 418 0
-14 -36 -38 417 -418 0
-14 -36 -38 -417 418 0
-14 -36 -38 -417 -418 0
5 18 -35 419 420 0
5 18 -35 419 -420 0
5 18 -35 -419 420 0
5 18 -35 -419 -420 0
5 10 -35 421 422 0
5 10 -35 421 -422 0
5 10 -35 -421 422 0
5 10 -35 -421 -422 0
7 -10 13 423 424 0
7 -10 13 423 -424 0
7 -10 13 -423 424 0
7 -10 13 -423 -424 0
7 -13 -35 425 426 0
7 -13 -35 425 -426 0
7 -13 -35 -425 426 0
7 -13 -35 -425 -426 0
4 -7 44 427 428 0
4 -7 44 427 -428 0
4 -7 44 -427 428 0
4 -7 44 -427 -428 0
5 -35 -44 429 430 0
5 -35 -44 429 -430 0
5 -35 -44 -429 430 0
5 -35 -44 -429 -430 0
4 10 50 431 432 0
4 10 50 431 -432 0
4 10 50 -431 432 0
4 10 50 -431 -432 0
1 9 26 433 434 0
1 9 26 433 -434 0
1 9 26 -433 434 0
1 9 26 -433 -434 0
9 23 -26 435 436 0
9 23 -26 435 -436 0
9 23 -26 -435 436 0
9 23 -26 -435 -436 0
1 9 -23 437 438 0
1 9 -23 437 -438 0
1 9 -23 -437 438 0
1 9 -23 -437 -438 0
-10 44 50 439 440 0
-10 44 50 439 -440 0
-10 44 50 -439 440 0
-10 44 50 -439 -440 0
-1 7 19 441 442 0
-1 7 19 441 -442 0
-1 7 19 -441 442 0
-1 7 19 -441 -442 0
-1 26 43 443 444 0
-1 26 43 443 -444 0
-1 26 43 -443 444 0
-1 26 43 -443 -444 0
-1 -26 -44 445 446 0
-1 -26 -44 445 -446 0
-1 -26 -44 -445 446 0
-1 -26 -44 -445 -446 0
-3 43 -44 447 448 0
-3 43 -44 447 -448 0
-3 43 -44 -447 448 0
-3 43 -44 -447 -448 0
-1 -44 50 449 450 0
-1 -44 50 449 -450 0
-1 -44 50 -449 450 0
-1 -44 50 -449 -450 0
19 -44 50 451 452 0
19 -44 50 451 -452 0
19 -44 50 -451 452 0
19 -44 50 -451 -452 0
-1 -10 -19 453 454 0
-1 -10 -19 453 -454 0
-1 -10 -19 -453 454 0
-1 -10 -19 -453 -454 0
8 24 -37 455 456 0
8 24 -37 455 -456 0
8 24 -37 -455 456 0
8 24 -37 -455 -456 0
17 24 -37 457 458 0
17 24 -37 457 -458 0
17 24 -37 -457 458 0
17 24 -37 -457 -458 0
10 17 -37 459 460 0
10 17 -37 459 -460 0
10 17 -37 -459 460 0
10 17 -37 -459 -460 0
-10 17 -27 461 462 0
-10 17 -27 461 -462 0
-10 17 -27 -461 462 0
-10 17 -27 -461 -462 0
-21 36 -37 463 464 0
-21 36 -37 463 -464 0
-21 36 -37 -463 464 0
-21 36 -37 -463 -464 0
-24 -36 -37 465 466 0
-24 -36 -37 465 -466 0
-24 -36 -37 -465 466 0
-24 -36 -37 -465 -466 0
-21 37 45 467 468 0
-21 37 45 467 -468 0
-21 37 45 -467 468 0
-21 37 45 -467 -468 0
14 41 -45 469 470 0
14 41 -45 469 -470 0
14 41 -45 -469 470 0
14 41 -45 -469 -470 0
-21 -41 -45 471 472 0
-21 -41 -45 471 -472 0
-21 -41 -45 -471 472 0
-21 -41 -45 -471 -472 0
14 -37 43 473 474 0
14 -37 43 473 -474 0
14 -37 43 -473 474 0
14 -37 43 -473 -474 0
33 39 -43 475 476 0
33 39 -43 475 -476 0
33 39 -43 -475 476 0
33 39 -43 -475 -476 0
-17 -21 -43 477 478 0
-17 -21 -43 477 -478 0
-17 -21 -43 -477 478 0
-17 -21 -43 -477 -478 0
1 -21 -43 479 480 0
1 -21 -43 479 -480 0
1 -21 -43 -479 480 0
1 -21 -43 -479 -480 0
-1 -21 -39 481 482 0
-1 -21 -39 481 -482 0
-1 -21 -39 -481 482 0
-1 -21 -39 -481 -482 0
-5 22 25 483 484 0
-5 22 25 483 -484 0
-5 22 25 -483 484 0
-5 22 25 -483 -484 0
19 -30 44 485 486 0
19 -30 44 485 -486 0
19 -30 44 -485 486 0
19 -30 44 -485 -486 0
19 -25 -30 487 488 0
19 -25 -30 487 -488 0
19 -25 -30 -487 488 0
19 -25 -30 -487 -488 0
19 -29 35 489 490 0
19 -29 35 489 -490 0
19 -29 35 -489 490 0
19 -29 35 -489 -490 0
19 -30 -35 491 492 0
19 -30 -35 491 -492 0
19 -30 -35 -491 492 0
19 -30 -35 -491 -492 0
4 30 -45 493 494 0
4 30 -45 493 -494 0
4 30 -45 -493 494 0
4 30 -45 -493 -494 0
7 24 -25 495 496 0
7 24 -25 495 -496 0
7 24 -25 -495 496 0
7 24 -25 -495 -496 0
-7 -25 46 497 498 0
-7 -25 46 497 -498 0
-7 -25 46 -497 498 0
-7 -25 46 -497 -498 0
-7 18 -46 499 500 0
-7 18 -46 499 -500 0
-7 18 -46 -499 500 0
-7 18 -46 -499 -500 0
-18 44 -50 501 502 0
-18 44 -50 501 -502 0
-18 44 -50 -501 502 0
-18 44 -50 -501 -502 0
24 -25 32 503 504 0
24 -25 32 503 -504 0
24 -25 32 -503 504 0
24 -25 32 -503 -504 0
-18 24 36 505 506 0
-18 24 36 505 -506 0
-18 24 36 -505 506 0
-18 24 36 -505 -506 0
-32 40 44 507 508 0
-32 40 44 507 -508 0
-32 40 44 -507 508 0
-32 40 44 -507 -508 0
-18 -32 -40 509 510 0
-18 -32 -40 509 -510 0
-18 -32 -40 -509 510 0
-18 -32 -40 -509 -510 0
-24 -25 -50 511 512 0
-24 -25 -50 511 -512 0
-24 -25 -50 -511 512 0
-24 -25 -50 -511 -512 0
-25 -48 -50 513 514 0
-25 -48 -50 513 -514 0
-25 -48 -50 -513 514 0
-25 -48 -50 -513 -514 0
2 -12 -50 515 516 0
2 -12 -50 515 -516 0
2 -12 -50 -515 516 0
2 -12 -50 -515 -516 0
-12 -35 -50 517 518 0
-12 -35 -50 517 -518 0
-12 -35 -50 -517 518 0
-12 -35 -50 -517 -518 0
11 21 45 519 520 0
11 21 45 519 -520 0
11 21 45 -519 520 0
11 21 45 -519 -520 0
12 33 45 521 522 0
12 33 45 521 -522 0
12 33 45 -521 522 0
12 33 45 -521 -522 0
-11 -12 45 523 524 0
-11 -12 45 523 -524 0
-11 -12 45 -523 524 0
-11 -12 45 -523 -524 0
10 16 36 525 526 0
10 16 36 525 -526 0
10 16 36 -525 526 0
10 16 36 -525 -526 0
10 36 -39 527 528 0
10 36 -39 527 -528 0
10 36 -39 -527 528 0
10 36 -39 -527 -528 0
10 13 -16 529 530 0
10 13 -16 529 -530 0
10 13 -16 -529 530 0
10 13 -16 -529 -530 0
-13 -16 -39 531 532 0
-13 -16 -39 531 -532 0
-13 -16 -39 -531 532 0
-13 -16 -39 -531 -532 0
-8 10 -44 533 534 0
-8 10 -44 533 -534 0
-8 10 -44 -533 534 0
-8 10 -44 -533 -534 0
-10 23 35 535 536 0
-10 23 35 535 -536 0
-10 23 35 -535 536 0
-10 23 35 -535 -536 0
23 36 -39 537 538 0
23 36 -39 537 -538 0
23 36 -39 -537 538 0
23 36 -39 -537 -538 0
-10 -23 36 539 540 0
-10 -23 36 539 -540 0
-10 -23 36 -539 540 0
-10 -23 36 -539 -540 0
36 -43 -44 541 542 0
36 -43 -44 541 -542 0
36 -43 -44 -541 542 0
36 -43 -44 -541 -542 0
-36 -39 41 543 544 0
-36 -39 41 543 -544 0
-36 -39 41 -543 544 0
-36 -39 41 -543 -544 0
20 21 -44 545 546 0
20 21 -44 545 -546 0
20 21 -44 -545 546 0
20 21 -44 -545 -546 0
27 -39 -44 547 548 0
27 -39 -44 547 -548 0
27 -39 -44 -547 548 0
27 -39 -44 -547 -548 0
21 31 -39 549 550 0
21 31 -39 549 -550 0
21 31 -39 -549 550 0
21 31 -39 -549 -550 0
21 26 -27 551 552 0
21 26 -27 551 -552 0
21 26 -27 -551 552 0
21 26 -27 -551 -552 0
21 -26 -31 553 554 0
21 -26 -31 553 -554 0
21 -26 -31 -553 554 0
21 -26 -31 -553 -554 0
6 -23 48 555 556 0
6 -23 48 555 -556 0
6 -23 48 -555 556 0
6 -23 48 -555 -556 0
-23 25 48 557 558 0
-23 25 48 557 -558 0
-23 25 48 -557 558 0
-23 25 48 -557 -558 0
-6 -23 -25 559 560 0
-6 -23 -25 559 -560 0
-6 -23 -25 -559 560 0
-6 -23 -25 -559 -560 0
-23 -48 50 561 562 0
-23 -48 50 561 -562 0
-23 -48 50 -561 562 0
-23 -48 50 -561 -562 0
-23 -48 -50 563 564 0
-23 -48 -50 563 -564 0
-23 -48 -50 -563 564 0
-23 -48 -50 -563 -564 0
23 30 32 565 566 0
23 30 32 565 -566 0
23 30 32 -565 566 0
23 30 32 -565 -566 0
23 32 39 567 568 0
23 32 39 567 -568 0
23 32 39 -567 568 0
23 32 39 -567 -568 0
34 41 50 569 570 0
34 41 50 569 -570 0
34 41 50 -569 570 0
34 41 50 -569 -570 0
34 39 49 571 572 0
34 39 49 571 -572 0
34 39 49 -571 572 0
34 39 49 -571 -572 0
39 -41 -49 573 574 0
39 -41 -49 573 -574 0
39 -41 -49 -573 574 0
39 -41 -49 -573 -574 0
18 -25 -50 575 576 0
18 -25 -50 575 -576 0
18 -25 -50 -575 576 0
18 -25 -50 -575 -576 0
13 32 39 577 578 0
13 32 39 577 -578 0
13 32 39 -577 578 0
13 32 39 -577 -578 0
13 -32 34 579 580 0
13 -32 34 579 -580 0
13 -32 34 -579 580 0
13 -32 34 -579 -580 0
-4 13 34 581 582 0
-4 13 34 581 -582 0
-4 13 34 -581 582 0
-4 13 34 -581 -582 0
-13 34 -50 583 584 0
-13 34 -50 583 -584 0
-13 34 -50 -583 584 0
-13 34 -50 -583 -584 0
-24 -34 39 585 586 0
-24 -34 39 585 -586 0
-24 -34 39 -585 586 0
-24 -34 39 -585 -586 0
20 30 -49 587 588 0
20 30 -49 587 -588 0
20 30 -49 -587 588 0
20 30 -49 -587 -588 0
-24 30 -49 589 590 0
-24 30 -49 589 -590 0
-24 30 -49 -589 590 0
-24 30 -49 -589 -590 0
-24 30 -33 591 592 0
-24 30 -33 591 -592 0
-24 30 -33 -591 592 0
-24 30 -33 -591 -592 0
-30 39 41 593 594 0
-30 39 41 593 -594 0
-30 39 41 -593 594 0
-30 39 41 -593 -594 0
-24 -30 -41 595 596 0
-24 -30 -41 595 -596 0
-24 -30 -41 -595 596 0
-24 -30 -41 -595 -596 0
10 12 45 597 598 0
10 12 45 597 -598 0
10 12 45 -597 598 0
10 12 45 -597 -598 0
12 26 -28 599 600 0
12 26 -28 599 -600 0
12 26 -28 -599 600 0
12 26 -28 -599 -600 0
-10 12 -26 601 602 0
-10 12 -26 601 -602 0
-10 12 -26 -601 602 0
-10 12 -26 -601 -602 0
-18 -28 -45 603 604 0
-18 -28 -45 603 -604 0
-18 -28 -45 -603 604 0
-18 -28 -45 -603 -604 0
12 18 -28 605 606 0
12 18 -28 605 -606 0
12 18 -28 -605 606 0
12 18 -28 -605 -606 0
-18 31 -34 607 608 0
-18 31 -34 607 -608 0
-18 31 -34 -607 608 0
-18 31 -34 -607 -608 0
-18 -28 -34 609 610 0
-18 -28 -34 609 -610 0
-18 -28 -34 -609 610 0
-18 -28 -34 -609 -610 0
12 -28 -33 611 612 0
12 -28 -33 611 -612 0
12 -28 -33 -611 612 0
12 -28 -33 -611 -612 0
6 24 -41 613 614 0
6 24 -41 613 -614 0
6 24 -41 -613 614 0
6 24 -41 -613 -614 0
-6 14 20 615 616 0
-6 14 20 615 -616 0
-6 14 20 -615 616 0
-6 14 20 -615 -616 0
-14 20 -41 617 618 0
-14 20 -41 617 -618 0
-14 20 -41 -617 618 0
-14 20 -41 -617 -618 0
-6 -20 28 619 620 0
-6 -20 28 619 -620 0
-6 -20 28 -619 620 0
-6 -20 28 -619 -620 0
8 -34 41 621 622 0
8 -34 41 621 -622 0
8 -34 41 -621 622 0
8 -34 41 -621 -622 0
-32 -34 49 623 624 0
-32 -34 49 623 -624 0
-32 -34 49 -623 624 0
-32 -34 49 -623 -624 0
23 -26 31 625 626 0
23 -26 31 625 -626 0
23 -26 31 -625 626 0
23 -26 31 -625 -626 0
23 -26 34 627 628 0
23 -26 34 627 -628 0
23 -26 34 -627 628 0
23 -26 34 -627 -628 0
23 -26 -34 629 630 0
23 -26 -34 629 -630 0
23 -26 -34 -629 630 0
23 -26 -34 -629 -630 0
-14 -16 -19 631 632 0
-14 -16 -19 631 -632 0
-14 -16 -19 -631 632 0
-14 -16 -19 -631 -632 0
-3 -19 25 633 634 0
-3 -19 25 633 -634 0
-3 -19 25 -633 634 0
-3 -19 25 -633 -634 0
-3 6 -13 635 636 0
-3 6 -13 635 -636 0
-3 6 -13 -635 636 0
-3 6 -13 -635 -636 0
-14 -16 -36 637 638 0
-14 -16 -36 637 -638 0
-14 -16 -36 -637 638 0
-14 -16 -36 -637 -638 0
-14 -16 26 639 640 0
-14 -16 26 639 -640 0
-14 -16 26 -639 640 0
-14 -16 26 -639 -640 0
-5 -14 -15 641 642 0
-5 -14 -15 641 -642 0
-5 -14 -15 -641 642 0
-5 -14 -15 -641 -642 0
-14 42 643 644 645 0
-14 42 643 644 -645 0
-14 42 643 -644 645 0
-14 42 643 -644 -645 0
-14 42 -643 644 645 0
-14 42 -643 644 -645 0
-14 42 -643 -644 645 0
-14 42 -643 -644 -645 0
24 26 -45 646 647 0
24 26 -45 646 -647 0
24 26 -45 -646 647 0
24 26 -45 -646 -647 0
-19 25 40 648 649 0
-19 25 40 648 -649 0
-19 25 40 -648 649 0
-19 25 40 -648 -649 0
22 26 -45 650 651 0
22 26 -45 650 -651 0
22 26 -45 -650 651 0
22 26 -45 -650 -651 0
